NAME : 10_3_3_1_(35).dat
COMMENT : Henke, Speranza, Wäscher, 2015
TYPE : MCVRP
DIMENSION : 11
EDGE_WEIGHT_TYPE : DISTANCE_MATRIX
CAPACITY : 1000
VEHICLES : 2
PRODUCT TYPES : 3
COMPARTMENTS : 3
NODE_COORD_SECTION
1 50 50
2 58.13 24.66
3 84.18 72.25
4 90.88 59.27
5 82.08 63.44
6 34.33 2.99
7 4.23 48.91
8 16.98 79.13
9 35.07 45.63
10 98.19 42.7
11 84.8 14.79
DEMAND_SECTION
1 0 0 0
2 0 178 0
3 0 0 117
4 160 0 0
5 212 0 0
6 0 229 0
7 113 0 0
8 0 0 24
9 47 0 0
10 146 0 0
11 0 0 131
DEPOT_SECTION
1
EOF